data/CVRPLIB/Vrp-Set-XML100/instances/XML100_1216_26.vrp
NAME : XML100_1216_26
COMMENT : Generated by Queiroga, Sadykov, Uchoa, and Vidal (2021)
TYPE : CVRP
DIMENSION : 101
EDGE_WEIGHT_TYPE : EUC_2D
CAPACITY : 44
NODE_COORD_SECTION
1    952  139 
2    219  187 
3    138  57  
4    252  51  
5    290  146 
6    326  970 
7    388  909 
8    151  91  
9    174  66  
10   164  203 
11   200  35  
12   23   72  
13   726  9   
14   431  936 
15   398  878 
16   351  928 
17   343  178 
18   253  810 
19   330  852 
20   212  49  
21   232  858 
22   201  7   
23   389  830 
24   189  49  
25   427  842 
26   553  995 
27   158  8   
28   221  118 
29   420  87  
30   371  921 
31   98   82  
32   464  989 
33   491  953 
34   370  948 
35   166  65  
36   406  101 
37   96   8   
38   349  962 
39   466  849 
40   416  863 
41   339  0   
42   114  84  
43   198  36  
44   384  922 
45   300  219 
46   123  106 
47   362  705 
48   518  850 
49   512  943 
50   231  123 
51   525  615 
52   506  714 
53   150  459 
54   335  17  
55   222  53  
56   111  212 
57   342  292 
58   238  161 
59   152  129 
60   367  858 
61   371  929 
62   52   149 
63   198  64  
64   282  962 
65   407  934 
66   375  888 
67   519  893 
68   137  46  
69   204  44  
70   441  903 
71   344  939 
72   390  61  
73   320  852 
74   378  904 
75   180  73  
76   409  884 
77   330  928 
78   199  150 
79   325  34  
80   291  106 
81   472  826 
82   249  405 
83   221  5   
84   286  175 
85   106  49  
86   277  33  
87   194  107 
88   152  143 
89   395  893 
90   459  730 
91   271  937 
92   301  916 
93   356  52  
94   213  57  
95   177  114 
96   191  70  
97   297  833 
98   444  875 
99   172  102 
100  400  975 
101  142  8   
DEMAND_SECTION
1    0   
2    1   
3    1   
4    1   
5    1   
6    1   
7    1   
8    1   
9    1   
10   1   
11   1   
12   1   
13   1   
14   1   
15   1   
16   1   
17   1   
18   1   
19   1   
20   1   
21   1   
22   1   
23   1   
24   1   
25   1   
26   1   
27   1   
28   1   
29   1   
30   1   
31   1   
32   1   
33   1   
34   1   
35   1   
36   1   
37   1   
38   1   
39   1   
40   1   
41   1   
42   1   
43   1   
44   1   
45   1   
46   1   
47   1   
48   1   
49   1   
50   1   
51   1   
52   1   
53   1   
54   1   
55   1   
56   1   
57   1   
58   1   
59   1   
60   1   
61   1   
62   1   
63   1   
64   1   
65   1   
66   1   
67   1   
68   1   
69   1   
70   1   
71   1   
72   1   
73   1   
74   1   
75   1   
76   1   
77   1   
78   1   
79   1   
80   1   
81   1   
82   1   
83   1   
84   1   
85   1   
86   1   
87   1   
88   1   
89   1   
90   1   
91   1   
92   1   
93   1   
94   1   
95   1   
96   1   
97   1   
98   1   
99   1   
100  1   
101  1   
DEPOT_SECTION
1
-1
EOF
