data/CVRPLIB/Vrp-Set-XML100/solutions/XML100_1216_26.sol
Route #1: 16 44 83 4 57 1 77 87 58 45 41 30 11 61 55 9 52 81 56
Route #2: 50 46 17 20 96 72 18 59 22 24 39 97 69 75 14 88 65 73 6 43 29 60 15 70 76 91 90 63 5 37 33 99 64 13 31 32 25 48 66 47 38 80 89 51
Route #3: 12 71 92 40 53 78 85 3 54 19 93 62 95 74 8 34 23 68 42 10 82 21 26 100 36 84 67 2 7 98 94 86 27 49 79 35 28
Cost 7647
